7992
40, 37, 38, 15, 43, 33, 51, 11, 52, 14, 13, 47, 26, 27, 28, 12, 25, 4, 6, 5, 24, 48, 46, 16, 29, 30, 2, 7, 42, 21, 17, 3, 41, 8, 9, 10, 19, 45, 32, 49, 1, 22, 18, 31, 23, 20, 50, 44, 34, 35, 36, 39
